AY03/file_infeasible.mps
NAME planificacion
ROWS
 N  OBJ
 E  L1      
 E  M2      
 E  W3      
 E  J4      
 E  V5      
 E  S6      
 E  D7      
 E  L8      
 E  M9      
 E  W10     
 E  J11     
 E  V12     
 E  S13     
 E  D14     
COLUMNS
    x[Tomas,D7]  OBJ       10
    x[Tomas,D7]  D7        1
    x[Tomas,W10]  OBJ       10
    x[Tomas,W10]  W10       1
    x[Tomas,S13]  OBJ       10
    x[Tomas,S13]  S13       1
    x[Tomas,L1]  OBJ       10
    x[Tomas,L1]  L1        1
    x[Tomas,V12]  OBJ       10
    x[Tomas,V12]  V12       1
    x[Tomas,L8]  OBJ       10
    x[Tomas,L8]  L8        1
    x[Tomas,V5]  OBJ       10
    x[Tomas,V5]  V5        1
    x[Tomas,J4]  OBJ       10
    x[Tomas,J4]  J4        1
    x[Tomas,M2]  OBJ       10
    x[Tomas,M2]  M2        1
    x[Tomas,S6]  OBJ       10
    x[Tomas,S6]  S6        1
    x[Tomas,J11]  OBJ       10
    x[Tomas,J11]  J11       1
    x[Javiera,L1]  OBJ       12
    x[Javiera,L1]  L1        1
    x[Javiera,D7]  OBJ       12
    x[Javiera,D7]  D7        1
    x[Javiera,J11]  OBJ       12
    x[Javiera,J11]  J11       1
    x[Javiera,J4]  OBJ       12
    x[Javiera,J4]  J4        1
    x[Javiera,V12]  OBJ       12
    x[Javiera,V12]  V12       1
    x[Javiera,M9]  OBJ       12
    x[Javiera,M9]  M9        1
    x[Javiera,S13]  OBJ       12
    x[Javiera,S13]  S13       1
    x[Javiera,L8]  OBJ       12
    x[Javiera,L8]  L8        1
    x[Javiera,S6]  OBJ       12
    x[Javiera,S6]  S6        1
    x[Javiera,V5]  OBJ       12
    x[Javiera,V5]  V5        1
    x[Javiera,D14]  OBJ       12
    x[Javiera,D14]  D14       1
    x[Javiera,M2]  OBJ       12
    x[Javiera,M2]  M2        1
    x[Javiera,W3]  OBJ       12
    x[Javiera,W3]  W3        1
    x[Marcelo,M2]  OBJ       10
    x[Marcelo,M2]  M2        1
    x[Marcelo,V12]  OBJ       10
    x[Marcelo,V12]  V12       1
    x[Marcelo,S6]  OBJ       10
    x[Marcelo,S6]  S6        1
    x[Marcelo,M9]  OBJ       10
    x[Marcelo,M9]  M9        1
    x[Marcelo,D7]  OBJ       10
    x[Marcelo,D7]  D7        1
    x[Marcelo,D14]  OBJ       10
    x[Marcelo,D14]  D14       1
    x[Marcelo,J11]  OBJ       10
    x[Marcelo,J11]  J11       1
    x[Marcelo,J4]  OBJ       10
    x[Marcelo,J4]  J4        1
    x[Marcelo,V5]  OBJ       10
    x[Marcelo,V5]  V5        1
    x[Jorge,W10]  OBJ       8
    x[Jorge,W10]  W10       1
    x[Jorge,L8]  OBJ       8
    x[Jorge,L8]  L8        1
    x[Jorge,D14]  OBJ       8
    x[Jorge,D14]  D14       1
    x[Jorge,M9]  OBJ       8
    x[Jorge,M9]  M9        1
    x[Jorge,D7]  OBJ       8
    x[Jorge,D7]  D7        1
    x[Jorge,L1]  OBJ       8
    x[Jorge,L1]  L1        1
    x[Jorge,J4]  OBJ       8
    x[Jorge,J4]  J4        1
    x[Jorge,V12]  OBJ       8
    x[Jorge,V12]  V12       1
    x[Jorge,S13]  OBJ       8
    x[Jorge,S13]  S13       1
    x[Ana,D7]  OBJ       8
    x[Ana,D7]  D7        1
    x[Ana,J11]  OBJ       8
    x[Ana,J11]  J11       1
    x[Ana,W3]  OBJ       8
    x[Ana,W3]  W3        1
    x[Ana,S6]  OBJ       8
    x[Ana,S6]  S6        1
    x[Ana,M9]  OBJ       8
    x[Ana,M9]  M9        1
    x[Ana,V12]  OBJ       8
    x[Ana,V12]  V12       1
    x[Ana,S13]  OBJ       8
    x[Ana,S13]  S13       1
    x[Ana,M2]  OBJ       8
    x[Ana,M2]  M2        1
    x[Ana,L8]  OBJ       8
    x[Ana,L8]  L8        1
    x[Ana,D14]  OBJ       8
    x[Ana,D14]  D14       1
    x[Ana,L1]  OBJ       8
    x[Ana,L1]  L1        1
    x[Camila,L1]  OBJ       9
    x[Camila,L1]  L1        1
    x[Camila,V5]  OBJ       9
    x[Camila,V5]  V5        1
    x[Camila,V12]  OBJ       9
    x[Camila,V12]  V12       1
    x[Camila,D14]  OBJ       9
    x[Camila,D14]  D14       1
    x[Camila,W10]  OBJ       9
    x[Camila,W10]  W10       1
    x[Camila,D7]  OBJ       9
    x[Camila,D7]  D7        1
    x[Camila,J11]  OBJ       9
    x[Camila,J11]  J11       1
    x[Camila,W3]  OBJ       9
    x[Camila,W3]  W3        1
    x[Camila,M9]  OBJ       9
    x[Camila,M9]  M9        1
    x[Camila,J4]  OBJ       9
    x[Camila,J4]  J4        1
    x[Camila,S13]  OBJ       9
    x[Camila,S13]  S13       1
    x[Camila,S6]  OBJ       9
    x[Camila,S6]  S6        1
    x[Diego,L8]  OBJ       11
    x[Diego,L8]  L8        1
    x[Diego,V5]  OBJ       11
    x[Diego,V5]  V5        1
    x[Diego,J11]  OBJ       11
    x[Diego,J11]  J11       1
    x[Diego,M9]  OBJ       11
    x[Diego,M9]  M9        1
    x[Diego,W10]  OBJ       11
    x[Diego,W10]  W10       1
    x[Diego,V12]  OBJ       11
    x[Diego,V12]  V12       1
    x[Diego,L1]  OBJ       11
    x[Diego,L1]  L1        1
    x[Diego,D7]  OBJ       11
    x[Diego,D7]  D7        1
    x[Diego,S13]  OBJ       11
    x[Diego,S13]  S13       1
    x[Diego,D14]  OBJ       11
    x[Diego,D14]  D14       1
RHS
    RHS1      L1        3
    RHS1      M2        6
    RHS1      W3        2
    RHS1      J4        4
    RHS1      V5        2
    RHS1      S6        5
    RHS1      D7        5
    RHS1      L8        5
    RHS1      M9        7
    RHS1      W10       5
    RHS1      J11       3
    RHS1      V12       2
    RHS1      S13       5
    RHS1      D14       2
BOUNDS
 UP BND1      x[Tomas,D7]  1
 UP BND1      x[Tomas,W10]  1
 UP BND1      x[Tomas,S13]  1
 UP BND1      x[Tomas,L1]  1
 UP BND1      x[Tomas,V12]  1
 UP BND1      x[Tomas,L8]  1
 UP BND1      x[Tomas,V5]  1
 UP BND1      x[Tomas,J4]  1
 UP BND1      x[Tomas,M2]  1
 UP BND1      x[Tomas,S6]  1
 UP BND1      x[Tomas,J11]  1
 UP BND1      x[Javiera,L1]  1
 UP BND1      x[Javiera,D7]  1
 UP BND1      x[Javiera,J11]  1
 UP BND1      x[Javiera,J4]  1
 UP BND1      x[Javiera,V12]  1
 UP BND1      x[Javiera,M9]  1
 UP BND1      x[Javiera,S13]  1
 UP BND1      x[Javiera,L8]  1
 UP BND1      x[Javiera,S6]  1
 UP BND1      x[Javiera,V5]  1
 UP BND1      x[Javiera,D14]  1
 UP BND1      x[Javiera,M2]  1
 UP BND1      x[Javiera,W3]  1
 UP BND1      x[Marcelo,M2]  1
 UP BND1      x[Marcelo,V12]  1
 UP BND1      x[Marcelo,S6]  1
 UP BND1      x[Marcelo,M9]  1
 UP BND1      x[Marcelo,D7]  1
 UP BND1      x[Marcelo,D14]  1
 UP BND1      x[Marcelo,J11]  1
 UP BND1      x[Marcelo,J4]  1
 UP BND1      x[Marcelo,V5]  1
 UP BND1      x[Jorge,W10]  1
 UP BND1      x[Jorge,L8]  1
 UP BND1      x[Jorge,D14]  1
 UP BND1      x[Jorge,M9]  1
 UP BND1      x[Jorge,D7]  1
 UP BND1      x[Jorge,L1]  1
 UP BND1      x[Jorge,J4]  1
 UP BND1      x[Jorge,V12]  1
 UP BND1      x[Jorge,S13]  1
 UP BND1      x[Ana,D7]  1
 UP BND1      x[Ana,J11]  1
 UP BND1      x[Ana,W3]  1
 UP BND1      x[Ana,S6]  1
 UP BND1      x[Ana,M9]  1
 UP BND1      x[Ana,V12]  1
 UP BND1      x[Ana,S13]  1
 UP BND1      x[Ana,M2]  1
 UP BND1      x[Ana,L8]  1
 UP BND1      x[Ana,D14]  1
 UP BND1      x[Ana,L1]  1
 UP BND1      x[Camila,L1]  1
 UP BND1      x[Camila,V5]  1
 UP BND1      x[Camila,V12]  1
 UP BND1      x[Camila,D14]  1
 UP BND1      x[Camila,W10]  1
 UP BND1      x[Camila,D7]  1
 UP BND1      x[Camila,J11]  1
 UP BND1      x[Camila,W3]  1
 UP BND1      x[Camila,M9]  1
 UP BND1      x[Camila,J4]  1
 UP BND1      x[Camila,S13]  1
 UP BND1      x[Camila,S6]  1
 UP BND1      x[Diego,L8]  1
 UP BND1      x[Diego,V5]  1
 UP BND1      x[Diego,J11]  1
 UP BND1      x[Diego,M9]  1
 UP BND1      x[Diego,W10]  1
 UP BND1      x[Diego,V12]  1
 UP BND1      x[Diego,L1]  1
 UP BND1      x[Diego,D7]  1
 UP BND1      x[Diego,S13]  1
 UP BND1      x[Diego,D14]  1
ENDATA
